data;

param n:=27;
param p:=4;
param r:=[1] 0 [2] 3 [3] 4 [4] 10 [5] 8 [6] 4 [7] 15 [8] 13 [9] 21 [10] 25 [11] 39 [12] 19 [13] 10 [14] 4 [15] 14 [16] 30 [17] 19 [18] 25 [19] 55 [20] 63 [21] 46 [22] 77 [23] 80 [24] 8 [25] 24 [26] 34 [27] 83 ;
param w:=[1] 45 [2] 77 [3] 75 [4] 76 [5] 15 [6] 38 [7] 97 [8] 24 [9] 88 [10] 39 [11] 19 [12] 58 [13] 86 [14] 38 [15] 100 [16] 30 [17] 96 [18] 50 [19] 8 [20] 51 [21] 81 [22] 97 [23] 34 [24] 83 [25] 97 [26] 86 [27] 67 ;

end;
